Clean 110 unreconstructed
1.00000000000000
  5.6103266233   0.0000000000000   0.000000000000
   0.0000000000000  7.950650000000   0.000000000000
   0.0000000000000   0.0000000000000   50.0000
Pt C O
20 1 1
selective dynamics
Cartesian
1.4025817       1.9835500       7.2077450       T       T       T
0.0000000       0.0000000       5.8051633       T       T       T
1.4025817       1.9835500       4.4025817       F       F       F
0.0000000       0.0000000       3.0000000       F       F       F
1.4025817       1.9835500       1.5974183       F       F       F
1.4025817       5.9506500       7.2077450       T       T       T
0.0000000       3.9671000       5.8051633       T       T       T
1.4025817       5.9506500       4.4025817       F       F       F
0.0000000       3.9671000       3.0000000       F       F       F
1.4025817       5.9506500       1.5974183       F       F       F
4.2077450       1.9835500       7.2077450       T       T       T
2.8051633       0.0000000       5.8051633       T       T       T
4.2077450       1.9835500       4.4025817       F       F       F
2.8051633       0.0000000       3.0000000       F       F       F
4.2077450       1.9835500       1.5974183       F       F       F
4.2077450       5.9506500       7.2077450       T       T       T
2.8051633       3.9671000       5.8051633       T       T       T
4.2077450       5.9506500       4.4025817       F       F       F
2.8051633       3.9671000       3.0000000       F       F       F
4.2077450       5.9506500       1.5974183       F       F       F
1.40258   1.98355 9.05775 T T T
1.40258   1.98355 10.21775 T T T
~                                                                           
